NAME          
ROWS
 N  OBJ
 L  c1
 L  c2
 L  c3
 L  c4
 L  c5
COLUMNS
    MARKER    'MARKER'                 'INTORG'
    x[1]      c1        6
    x[1]      c2        614
    x[1]      c3        889
    x[1]      c4        445
    x[1]      c5        832
    x[1]      OBJ       -733
    x[2]      c1        216
    x[2]      c2        216
    x[2]      c3        406
    x[2]      c4        417
    x[2]      c5        464
    x[2]      OBJ       -689
    x[3]      c1        344
    x[3]      c2        315
    x[3]      c3        130
    x[3]      c4        893
    x[3]      c5        574
    x[3]      OBJ       -182
    x[4]      c1        652
    x[4]      c2        960
    x[4]      c3        886
    x[4]      c4        636
    x[4]      c5        163
    x[4]      OBJ       -978
    x[5]      c1        566
    x[5]      c2        90
    x[5]      c3        67
    x[5]      c4        650
    x[5]      c5        254
    x[5]      OBJ       -541
    x[6]      c1        840
    x[6]      c2        601
    x[6]      c3        447
    x[6]      c4        928
    x[6]      c5        508
    x[6]      OBJ       -580
    x[7]      c1        945
    x[7]      c2        791
    x[7]      c3        289
    x[7]      c4        209
    x[7]      c5        789
    x[7]      OBJ       -192
    x[8]      c1        364
    x[8]      c2        828
    x[8]      c3        492
    x[8]      c4        752
    x[8]      c5        622
    x[8]      OBJ       -482
    x[9]      c1        677
    x[9]      c2        130
    x[9]      c3        168
    x[9]      c4        871
    x[9]      c5        852
    x[9]      OBJ       -878
    x[10]     c1        335
    x[10]     c2        486
    x[10]     c3        331
    x[10]     c4        304
    x[10]     c5        132
    x[10]     OBJ       -852
    x[11]     c1        252
    x[11]     c2        798
    x[11]     c3        524
    x[11]     c4        739
    x[11]     c5        852
    x[11]     OBJ       -949
    x[12]     c1        300
    x[12]     c2        267
    x[12]     c3        924
    x[12]     c4        297
    x[12]     c5        466
    x[12]     OBJ       -821
    x[13]     c1        146
    x[13]     c2        396
    x[13]     c3        43
    x[13]     c4        72
    x[13]     c5        219
    x[13]     OBJ       -954
    x[14]     c1        127
    x[14]     c2        306
    x[14]     c3        52
    x[14]     c4        162
    x[14]     c5        120
    x[14]     OBJ       -501
    x[15]     c1        257
    x[15]     c2        964
    x[15]     c3        372
    x[15]     c4        15
    x[15]     c5        278
    x[15]     OBJ       -687
    x[16]     c1        526
    x[16]     c2        343
    x[16]     c3        694
    x[16]     c4        514
    x[16]     c5        284
    x[16]     OBJ       -382
    x[17]     c1        338
    x[17]     c2        15
    x[17]     c3        909
    x[17]     c4        858
    x[17]     c5        172
    x[17]     OBJ       -780
    x[18]     c1        640
    x[18]     c2        128
    x[18]     c3        131
    x[18]     c4        475
    x[18]     c5        795
    x[18]     OBJ       -79
    x[19]     c1        54
    x[19]     c2        44
    x[19]     c3        35
    x[19]     c4        409
    x[19]     c5        626
    x[19]     OBJ       -622
    x[20]     c1        904
    x[20]     c2        465
    x[20]     c3        705
    x[20]     c4        190
    x[20]     c5        810
    x[20]     OBJ       -687
    x[21]     c1        635
    x[21]     c2        551
    x[21]     c3        85
    x[21]     c4        197
    x[21]     c5        12
    x[21]     OBJ       -973
    x[22]     c1        260
    x[22]     c2        512
    x[22]     c3        297
    x[22]     c4        561
    x[22]     c5        314
    x[22]     OBJ       -511
    x[23]     c1        542
    x[23]     c2        822
    x[23]     c3        531
    x[23]     c4        425
    x[23]     c5        332
    x[23]     OBJ       -405
    x[24]     c1        839
    x[24]     c2        309
    x[24]     c3        960
    x[24]     c4        986
    x[24]     c5        550
    x[24]     OBJ       -465
    x[25]     c1        913
    x[25]     c2        40
    x[25]     c3        162
    x[25]     c4        387
    x[25]     c5        276
    x[25]     OBJ       -165
    x[26]     c1        471
    x[26]     c2        902
    x[26]     c3        332
    x[26]     c4        164
    x[26]     c5        816
    x[26]     OBJ       -26
    x[27]     c1        593
    x[27]     c2        538
    x[27]     c3        63
    x[27]     c4        493
    x[27]     c5        108
    x[27]     OBJ       -946
    x[28]     c1        24
    x[28]     c2        825
    x[28]     c3        360
    x[28]     c4        835
    x[28]     c5        966
    x[28]     OBJ       -566
    x[29]     c1        291
    x[29]     c2        197
    x[29]     c3        673
    x[29]     c4        526
    x[29]     c5        680
    x[29]     OBJ       -45
    x[30]     c1        994
    x[30]     c2        769
    x[30]     c3        435
    x[30]     c4        135
    x[30]     c5        362
    x[30]     OBJ       -295
    x[31]     c1        823
    x[31]     c2        397
    x[31]     c3        584
    x[31]     c4        202
    x[31]     c5        313
    x[31]     OBJ       -227
    x[32]     c1        752
    x[32]     c2        374
    x[32]     c3        766
    x[32]     c4        97
    x[32]     c5        113
    x[32]     OBJ       -709
    x[33]     c1        879
    x[33]     c2        238
    x[33]     c3        22
    x[33]     c4        778
    x[33]     c5        97
    x[33]     OBJ       -862
    x[34]     c1        16
    x[34]     c2        304
    x[34]     c3        304
    x[34]     c4        298
    x[34]     c5        377
    x[34]     OBJ       -913
    x[35]     c1        39
    x[35]     c2        870
    x[35]     c3        556
    x[35]     c4        669
    x[35]     c5        77
    x[35]     OBJ       -648
    x[36]     c1        699
    x[36]     c2        893
    x[36]     c3        862
    x[36]     c4        365
    x[36]     c5        792
    x[36]     OBJ       -159
    x[37]     c1        261
    x[37]     c2        711
    x[37]     c3        330
    x[37]     c4        790
    x[37]     c5        680
    x[37]     OBJ       -954
    x[38]     c1        256
    x[38]     c2        331
    x[38]     c3        441
    x[38]     c4        411
    x[38]     c5        559
    x[38]     OBJ       -735
    x[39]     c1        818
    x[39]     c2        653
    x[39]     c3        994
    x[39]     c4        729
    x[39]     c5        579
    x[39]     OBJ       -480
    x[40]     c1        277
    x[40]     c2        242
    x[40]     c3        904
    x[40]     c4        866
    x[40]     c5        542
    x[40]     OBJ       -82
RHS
    rhs       c1        9436
    rhs       c2        9618
    rhs       c3        9078
    rhs       c4        9875
    rhs       c5        9178
RANGES
BOUNDS
 BV bounds    x[1]
 BV bounds    x[2]
 BV bounds    x[3]
 BV bounds    x[4]
 BV bounds    x[5]
 BV bounds    x[6]
 BV bounds    x[7]
 BV bounds    x[8]
 BV bounds    x[9]
 BV bounds    x[10]
 BV bounds    x[11]
 BV bounds    x[12]
 BV bounds    x[13]
 BV bounds    x[14]
 BV bounds    x[15]
 BV bounds    x[16]
 BV bounds    x[17]
 BV bounds    x[18]
 BV bounds    x[19]
 BV bounds    x[20]
 BV bounds    x[21]
 BV bounds    x[22]
 BV bounds    x[23]
 BV bounds    x[24]
 BV bounds    x[25]
 BV bounds    x[26]
 BV bounds    x[27]
 BV bounds    x[28]
 BV bounds    x[29]
 BV bounds    x[30]
 BV bounds    x[31]
 BV bounds    x[32]
 BV bounds    x[33]
 BV bounds    x[34]
 BV bounds    x[35]
 BV bounds    x[36]
 BV bounds    x[37]
 BV bounds    x[38]
 BV bounds    x[39]
 BV bounds    x[40]
ENDATA
